(set-info :smt-lib-version 2.6)
(set-logic UFLIA)
(set-info :source |
Generated by: Pierre Carbonnelle
Generated on: 2026-04-28
Generator: https://github.com/xmt-lib/benchmarks
Application: test of grounders
Target solver: Z3
Publications: https://arxiv.org/abs/2602.19102
Time limit: 300
From the DIRT benchmark used to evaluate grounders
|)
(set-info :license "https://creativecommons.org/licenses/by/4.0/")
(set-info :category "crafted")
(set-info :status sat)

(define-fun Val ((x Int)) Bool (or
  (= x 1)
  (= x 2)
  (= x 3)
  (= x 4)
  (= x 5)
  (= x 6)
  (= x 7)
  (= x 8)
  (= x 9)
  (= x 10)
  (= x 11)
  (= x 12)
  (= x 13)
  (= x 14)
  (= x 15)
  (= x 16)
  (= x 17)
  (= x 18)
  (= x 19)
  (= x 20)
  (= x 21)
  (= x 22)
  (= x 23)
  (= x 24)
  (= x 25)
  (= x 26)
  (= x 27)
  (= x 28)
  (= x 29)
  (= x 30)
  (= x 31)
  (= x 32)
  (= x 33)
  (= x 34)
  (= x 35)
  (= x 36)
  (= x 37)
))

(declare-fun queen (Int) Int)
(assert (forall ((v Int))
            (=> (Val v)
                (Val (queen v)))))

(assert (forall ((v1 Int) (v2 Int))
            (=> (and (Val v1) (Val v2) (< v1 v2))
                (not (= (queen v1) (queen v2))))))
(assert (forall ((v1 Int) (v2 Int))
            (=> (and (Val v1) (Val v2) (< v1 v2))
                (not (= (+ (queen v1) v1) (+ (queen v2) v2))))))
(assert (forall ((v1 Int) (v2 Int))
            (=> (and (Val v1) (Val v2) (< v1 v2))
                (not (= (- (queen v1) v1) (- (queen v2) v2))))))

(check-sat)
(exit)
